I AM STARTING --------------------
[]
NOW I AM GOING TO SOLVE THE MODEL FOR FIRST SOLUTION
Gurobi Optimizer version 12.0.3 build v12.0.3rc0 (linux64 - "Ubuntu 22.04.5 LTS")

CPU model: AMD EPYC 7742 64-Core Processor, instruction set [SSE2|AVX|AVX2]
Thread count: 128 physical cores, 256 logical processors, using up to 32 threads

Optimize a model with 146745 rows, 33859 columns and 451974 nonzeros
Model fingerprint: 0x533edf5e
Variable types: 33772 continuous, 87 integer (0 binary)
Coefficient statistics:
  Matrix range     [1e+00, 3e+00]
  Objective range  [1e+00, 3e+00]
  Bounds range     [1e+00, 1e+00]
  RHS range        [1e+00, 1e+03]
Presolve removed 110430 rows and 24221 columns
Presolve time: 1.71s
Presolved: 36315 rows, 9638 columns, 155568 nonzeros
Variable types: 8947 continuous, 691 integer (691 binary)
Found heuristic solution: objective 54.0000000
Found heuristic solution: objective 64.0000000
Found heuristic solution: objective 102.0000000

Root simplex log...

Iteration    Objective       Primal Inf.    Dual Inf.      Time
   11070    1.9499925e+02   1.964286e+01   0.000000e+00      5s
   11171    1.9500000e+02   0.000000e+00   0.000000e+00      5s

Root relaxation: objective 1.950000e+02, 11171 iterations, 3.19 seconds (3.50 work units)

    Nodes    |    Current Node    |     Objective Bounds      |     Work
 Expl Unexpl |  Obj  Depth IntInf | Incumbent    BestBd   Gap | It/Node Time

     0     0  195.00000    0  228  102.00000  195.00000  91.2%     -    8s
H    0     0                     169.0000000  195.00000  15.4%     -    8s
H    0     0                     189.3333333  195.00000  2.99%     -    8s
H    0     0                     190.0000000  193.00000  1.58%     -   12s
     0     0  193.00000    0  399  190.00000  193.00000  1.58%     -   13s
H    0     0                     191.0000000  193.00000  1.05%     -   13s
H    0     0                     193.0000000  193.00000  0.00%     -   13s
     0     0  193.00000    0  399  193.00000  193.00000  0.00%     -   13s

Cutting planes:
  Gomory: 4
  MIR: 40
  Flow cover: 2
  RLT: 126
  BQP: 171

Explored 1 nodes (23935 simplex iterations) in 13.35 seconds (13.73 work units)
Thread count was 32 (of 256 available processors)

Solution count 8: 193 191 190 ... 54

Optimal solution found (tolerance 1.00e-04)
Best objective 1.930000000000e+02, best bound 1.930000000000e+02, gap 0.0000%
Objective value: 193.0
lam[0,0] = -0.0
lam[0,1] = -0.0
lam[0,2] = -0.0
lam[0,3] = -0.0
lam[0,4] = -0.0
lam[0,5] = 1.0
lam[0,6] = -0.0
lam[0,7] = -0.0
lam[0,8] = -0.0
lam[1,0] = -0.0
lam[1,1] = -0.0
lam[1,2] = 1.0
lam[1,3] = -0.0
lam[1,4] = -0.0
lam[1,5] = -0.0
lam[1,6] = -0.0
lam[1,7] = -0.0
lam[1,8] = -0.0
lam[2,0] = -0.0
lam[2,1] = -0.0
lam[2,2] = -0.0
lam[2,3] = -0.0
lam[2,4] = -0.0
lam[2,5] = 1.0
lam[2,6] = -0.0
lam[2,7] = -0.0
lam[2,8] = -0.0
lam[3,0] = -0.0
lam[3,1] = -0.0
lam[3,2] = -0.0
lam[3,3] = -0.0
lam[3,4] = -0.0
lam[3,5] = 1.0
lam[3,6] = -0.0
lam[3,7] = -0.0
lam[3,8] = -0.0
lam[4,0] = -0.0
lam[4,1] = -0.0
lam[4,2] = -0.0
lam[4,3] = -0.0
lam[4,4] = -0.0
lam[4,5] = 1.0
lam[4,6] = -0.0
lam[4,7] = -0.0
lam[4,8] = -0.0
tau[0,0,1] = 1.0
tau[0,0,2] = -0.0
tau[0,0,3] = -0.0
tau[0,0,4] = -0.0
tau[0,0,L0] = -0.0
tau[0,0,L1] = -0.0
tau[0,0,L2] = -0.0
tau[0,1,1] = 1.0
tau[0,1,2] = -0.0
tau[0,1,3] = -0.0
tau[0,1,4] = -0.0
tau[0,1,L0] = -0.0
tau[0,1,L1] = -0.0
tau[0,1,L2] = -0.0
tau[0,2,1] = 1.0
tau[0,2,2] = -0.0
tau[0,2,3] = -0.0
tau[0,2,4] = -0.0
tau[0,2,L0] = -0.0
tau[0,2,L1] = -0.0
tau[0,2,L2] = -0.0
tau[0,3,1] = 1.0
tau[0,3,2] = -0.0
tau[0,3,3] = -0.0
tau[0,3,4] = -0.0
tau[0,3,L0] = -0.0
tau[0,3,L1] = -0.0
tau[0,3,L2] = -0.0
tau[0,4,1] = -0.0
tau[0,4,2] = -0.0
tau[0,4,3] = -0.0
tau[0,4,4] = -0.0
tau[0,4,L0] = -0.0
tau[0,4,L1] = -0.0
tau[0,4,L2] = -0.0
tau[0,5,1] = -0.0
tau[0,5,2] = -0.0
tau[0,5,3] = -0.0
tau[0,5,4] = -0.0
tau[0,5,L0] = -0.0
tau[0,5,L1] = -0.0
tau[0,5,L2] = -0.0
tau[1,0,2] = 0.3333333333333333
tau[1,0,3] = 0.3333333333333333
tau[1,0,4] = 0.3333333333333333
tau[1,0,L0] = 0.0
tau[1,0,L1] = 0.0
tau[1,0,L2] = 0.0
tau[1,1,2] = 0.3333333333333333
tau[1,1,3] = 0.3333333333333333
tau[1,1,4] = 0.3333333333333333
tau[1,1,L0] = 0.0
tau[1,1,L1] = 0.0
tau[1,1,L2] = 0.0
tau[1,2,2] = 0.3333333333333333
tau[1,2,3] = 0.0
tau[1,2,4] = 0.0
tau[1,2,L0] = 0.0
tau[1,2,L1] = 0.6666666666666666
tau[1,2,L2] = 0.0
tau[1,3,2] = 0.3333333333333333
tau[1,3,3] = 0.3333333333333333
tau[1,3,4] = 0.3333333333333333
tau[1,3,L0] = 0.0
tau[1,3,L1] = 0.0
tau[1,3,L2] = 0.0
tau[1,4,2] = 0.3333333333333333
tau[1,4,3] = 0.3333333333333333
tau[1,4,4] = 0.3333333333333333
tau[1,4,L0] = 0.0
tau[1,4,L1] = 0.0
tau[1,4,L2] = 0.0
tau[1,5,2] = 0.3333333333333333
tau[1,5,3] = 0.3333333333333333
tau[1,5,4] = 0.3333333333333333
tau[1,5,L0] = 0.0
tau[1,5,L1] = 0.0
tau[1,5,L2] = 0.0
tau[2,0,3] = 0.0
tau[2,0,4] = 0.0
tau[2,0,L0] = 0.3333333333333333
tau[2,0,L1] = 0.3333333333333333
tau[2,0,L2] = 0.3333333333333333
tau[2,1,3] = 0.0
tau[2,1,4] = 0.0
tau[2,1,L0] = 0.3333333333333333
tau[2,1,L1] = 0.3333333333333333
tau[2,1,L2] = 0.3333333333333333
tau[2,2,3] = 0.0
tau[2,2,4] = 0.0
tau[2,2,L0] = 0.3333333333333333
tau[2,2,L1] = 0.3333333333333333
tau[2,2,L2] = 0.3333333333333333
tau[2,3,3] = 0.0
tau[2,3,4] = 0.0
tau[2,3,L0] = 0.3333333333333333
tau[2,3,L1] = 0.3333333333333333
tau[2,3,L2] = 0.3333333333333333
tau[2,4,3] = 0.0
tau[2,4,4] = 0.0
tau[2,4,L0] = 0.0
tau[2,4,L1] = 0.0
tau[2,4,L2] = 0.0
tau[2,5,3] = 0.0
tau[2,5,4] = 0.0
tau[2,5,L0] = 0.0
tau[2,5,L1] = 0.0
tau[2,5,L2] = 0.0
tau[3,0,4] = 0.0
tau[3,0,L0] = 0.3333333333333333
tau[3,0,L1] = 0.3333333333333333
tau[3,0,L2] = 0.3333333333333333
tau[3,1,4] = 0.0
tau[3,1,L0] = 0.3333333333333333
tau[3,1,L1] = 0.3333333333333333
tau[3,1,L2] = 0.3333333333333333
tau[3,2,4] = 0.0
tau[3,2,L0] = 0.3333333333333333
tau[3,2,L1] = 0.3333333333333333
tau[3,2,L2] = 0.3333333333333333
tau[3,3,4] = 0.0
tau[3,3,L0] = 0.3333333333333333
tau[3,3,L1] = 0.3333333333333333
tau[3,3,L2] = 0.3333333333333333
tau[3,4,4] = 0.0
tau[3,4,L0] = 0.0
tau[3,4,L1] = 0.0
tau[3,4,L2] = 0.0
tau[3,5,4] = 0.0
tau[3,5,L0] = 0.0
tau[3,5,L1] = 0.0
tau[3,5,L2] = 0.0
tau[4,0,L0] = 0.3333333333333333
tau[4,0,L1] = 0.3333333333333333
tau[4,0,L2] = 0.3333333333333333
tau[4,1,L0] = 0.3333333333333333
tau[4,1,L1] = 0.3333333333333333
tau[4,1,L2] = 0.3333333333333333
tau[4,2,L0] = 0.3333333333333333
tau[4,2,L1] = 0.3333333333333333
tau[4,2,L2] = 0.3333333333333333
tau[4,3,L0] = 0.3333333333333333
tau[4,3,L1] = 0.3333333333333333
tau[4,3,L2] = 0.3333333333333333
tau[4,4,L0] = 0.0
tau[4,4,L1] = 0.0
tau[4,4,L2] = 0.0
tau[4,5,L0] = 0.0
tau[4,5,L1] = 0.0
tau[4,5,L2] = 0.0
m[0,0] = 1.0
m[0,1] = 1.0
m[0,2] = 1.0
m[0,3] = 1.0
m[0,4] = 1.0
m[0,5] = 1.0
m[0,6] = 1.0
m[0,7] = 1.0
m[0,8] = 1.0
m[0,9] = 1.0
m[0,10] = 1.0
m[0,11] = 1.0
m[0,12] = 1.0
m[0,13] = 1.0
m[0,14] = 1.0
m[0,15] = 1.0
m[0,16] = 1.0
m[0,17] = 1.0
m[0,18] = 1.0
m[0,19] = 1.0
m[0,20] = 1.0
m[0,21] = 1.0
m[0,22] = 1.0
m[0,23] = 1.0
m[0,24] = 1.0
m[0,25] = 1.0
m[0,26] = 1.0
m[0,27] = 1.0
m[0,28] = 1.0
m[0,29] = 1.0
m[0,30] = 1.0
m[0,31] = 1.0
m[0,32] = 1.0
m[0,33] = 1.0
m[0,34] = 1.0
m[0,35] = 1.0
m[0,36] = 1.0
m[0,37] = 1.0
m[0,38] = 1.0
m[0,39] = 1.0
m[0,40] = 1.0
m[0,41] = 1.0
m[0,42] = 1.0
m[0,43] = 1.0
m[0,44] = 1.0
m[0,45] = 1.0
m[0,46] = 1.0
m[0,47] = 1.0
m[0,48] = 1.0
m[0,49] = 1.0
m[0,50] = 1.0
m[0,51] = 1.0
m[0,52] = 1.0
m[0,53] = 1.0
m[0,54] = 1.0
m[0,55] = 1.0
m[0,56] = 1.0
m[0,57] = 1.0
m[0,58] = 1.0
m[0,59] = 1.0
m[0,60] = 1.0
m[0,61] = 1.0
m[0,62] = 1.0
m[0,63] = 1.0
m[0,64] = 1.0
m[0,65] = 1.0
m[0,66] = 1.0
m[0,67] = 1.0
m[0,68] = 1.0
m[0,69] = 1.0
m[0,70] = 1.0
m[0,71] = 1.0
m[0,72] = 1.0
m[0,73] = 1.0
m[0,74] = 1.0
m[0,75] = 1.0
m[0,76] = 1.0
m[0,77] = 1.0
m[0,78] = 1.0
m[0,79] = 1.0
m[0,80] = 1.0
m[0,81] = 1.0
m[0,82] = 1.0
m[0,83] = 1.0
m[0,84] = 1.0
m[0,85] = 1.0
m[0,86] = 1.0
m[0,87] = 1.0
m[0,88] = 1.0
m[0,89] = 1.0
m[0,90] = 1.0
m[0,91] = 1.0
m[0,92] = 1.0
m[0,93] = 1.0
m[0,94] = 1.0
m[0,95] = 1.0
m[0,96] = 1.0
m[0,97] = 1.0
m[0,98] = 1.0
m[0,99] = 1.0
m[0,100] = 1.0
m[0,101] = 1.0
m[0,102] = 1.0
m[0,103] = 1.0
m[0,104] = 1.0
m[0,105] = 1.0
m[0,106] = 1.0
m[0,107] = 1.0
m[0,108] = 1.0
m[0,109] = 1.0
m[0,110] = 1.0
m[0,111] = 1.0
m[0,112] = 1.0
m[0,113] = 1.0
m[0,114] = 1.0
m[0,115] = 1.0
m[0,116] = 1.0
m[0,117] = 1.0
m[0,118] = 1.0
m[0,119] = 1.0
m[0,120] = 1.0
m[0,121] = 1.0
m[0,122] = 1.0
m[0,123] = 1.0
m[0,124] = 1.0
m[0,125] = 1.0
m[0,126] = 1.0
m[0,127] = 1.0
m[0,128] = 1.0
m[0,129] = 1.0
m[0,130] = 1.0
m[0,131] = 1.0
m[0,132] = 1.0
m[0,133] = 1.0
m[0,134] = 1.0
m[0,135] = 1.0
m[0,136] = 1.0
m[0,137] = 1.0
m[0,138] = 1.0
m[0,139] = 1.0
m[0,140] = 1.0
m[0,141] = 1.0
m[0,142] = 1.0
m[0,143] = 1.0
m[0,144] = 1.0
m[0,145] = 1.0
m[0,146] = 1.0
m[0,147] = 1.0
m[0,148] = 1.0
m[0,149] = 1.0
m[0,150] = 1.0
m[0,151] = 1.0
m[0,152] = 1.0
m[0,153] = 1.0
m[0,154] = 1.0
m[0,155] = 1.0
m[0,156] = 1.0
m[0,157] = 1.0
m[0,158] = 1.0
m[0,159] = 1.0
m[0,160] = 1.0
m[0,161] = 1.0
m[0,162] = 1.0
m[0,163] = 1.0
m[0,164] = 1.0
m[0,165] = 1.0
m[0,166] = 1.0
m[0,167] = 1.0
m[0,168] = 1.0
m[0,169] = 1.0
m[0,170] = 1.0
m[0,171] = 1.0
m[0,172] = 1.0
m[0,173] = 1.0
m[0,174] = 1.0
m[0,175] = 1.0
m[0,176] = 1.0
m[0,177] = 1.0
u[0] = 1.0
u[1] = 1.0
u[2] = 1.0
u[3] = 1.0
u[4] = 1.0
o_u[0,0] = 0.0
o_u[0,1] = 0.0
o_u[0,2] = 0.0
o_u[0,3] = 0.0
o_u[0,4] = 0.0
o_u[0,5] = 1.0
o_u[0,6] = -0.0
o_u[0,7] = -0.0
o_u[0,8] = 0.0
o_u[1,0] = 0.0
o_u[1,1] = 0.0
o_u[1,2] = 1.0
o_u[1,3] = 0.0
o_u[1,4] = 0.0
o_u[1,5] = 0.0
o_u[1,6] = 0.0
o_u[1,7] = 0.0
o_u[1,8] = 0.0
o_u[2,0] = 0.0
o_u[2,1] = 0.0
o_u[2,2] = 0.0
o_u[2,3] = 0.0
o_u[2,4] = 0.0
o_u[2,5] = 1.0
o_u[2,6] = 0.0
o_u[2,7] = 0.0
o_u[2,8] = 0.0
o_u[3,0] = 0.0
o_u[3,1] = 0.0
o_u[3,2] = 0.0
o_u[3,3] = 0.0
o_u[3,4] = 0.0
o_u[3,5] = 1.0
o_u[3,6] = 0.0
o_u[3,7] = 0.0
o_u[3,8] = 0.0
o_u[4,0] = 0.0
o_u[4,1] = 0.0
o_u[4,2] = 0.0
o_u[4,3] = 0.0
o_u[4,4] = 0.0
o_u[4,5] = 1.0
o_u[4,6] = 0.0
o_u[4,7] = 0.0
o_u[4,8] = 0.0
------------------------------------------------------------------------
------------------------------------------------------------------------
Saved hierarchical tree visualization to milp_tree_levels.png
[]
Gurobi Optimizer version 12.0.3 build v12.0.3rc0 (linux64 - "Ubuntu 22.04.5 LTS")

CPU model: AMD EPYC 7742 64-Core Processor, instruction set [SSE2|AVX|AVX2]
Thread count: 128 physical cores, 256 logical processors, using up to 32 threads

Optimize a model with 146745 rows, 33859 columns and 451974 nonzeros
Model fingerprint: 0x533edf5e
Variable types: 33772 continuous, 87 integer (0 binary)
Coefficient statistics:
  Matrix range     [1e+00, 3e+00]
  Objective range  [1e+00, 3e+00]
  Bounds range     [1e+00, 1e+00]
  RHS range        [1e+00, 1e+03]
Presolve removed 110430 rows and 24221 columns
Presolve time: 1.76s
Presolved: 36315 rows, 9638 columns, 155568 nonzeros
Variable types: 8947 continuous, 691 integer (691 binary)
Found heuristic solution: objective 54.0000000
Found heuristic solution: objective 64.0000000
Found heuristic solution: objective 102.0000000

Root relaxation: objective 1.950000e+02, 11171 iterations, 3.04 seconds (3.50 work units)
Total elapsed time = 6.87s (DegenMoves)

    Nodes    |    Current Node    |     Objective Bounds      |     Work
 Expl Unexpl |  Obj  Depth IntInf | Incumbent    BestBd   Gap | It/Node Time

     0     0  195.00000    0  228  102.00000  195.00000  91.2%     -    7s
H    0     0                     169.0000000  195.00000  15.4%     -    8s
H    0     0                     189.3333333  195.00000  2.99%     -    8s
H    0     0                     190.0000000  193.00000  1.58%     -   11s
     0     0  193.00000    0  399  190.00000  193.00000  1.58%     -   12s
H    0     0                     191.0000000  193.00000  1.05%     -   12s
H    0     0                     193.0000000  193.00000  0.00%     -   12s
     0     0  193.00000    0  399  193.00000  193.00000  0.00%     -   12s

Cutting planes:
  Gomory: 4
  MIR: 40
  Flow cover: 2
  RLT: 126
  BQP: 171

Explored 1 nodes (23935 simplex iterations) in 12.77 seconds (13.73 work units)
Thread count was 32 (of 256 available processors)

Solution count 8: 193 191 190 ... 54

Optimal solution found (tolerance 1.00e-04)
Best objective 1.930000000000e+02, best bound 1.930000000000e+02, gap 0.0000%
Objective value: 193.0
lam[0,0] = -0.0
lam[0,1] = -0.0
lam[0,2] = -0.0
lam[0,3] = -0.0
lam[0,4] = -0.0
lam[0,5] = 1.0
lam[0,6] = -0.0
lam[0,7] = -0.0
lam[0,8] = -0.0
lam[1,0] = -0.0
lam[1,1] = -0.0
lam[1,2] = 1.0
lam[1,3] = -0.0
lam[1,4] = -0.0
lam[1,5] = -0.0
lam[1,6] = -0.0
lam[1,7] = -0.0
lam[1,8] = -0.0
lam[2,0] = -0.0
lam[2,1] = -0.0
lam[2,2] = -0.0
lam[2,3] = -0.0
lam[2,4] = -0.0
lam[2,5] = 1.0
lam[2,6] = -0.0
lam[2,7] = -0.0
lam[2,8] = -0.0
lam[3,0] = -0.0
lam[3,1] = -0.0
lam[3,2] = -0.0
lam[3,3] = -0.0
lam[3,4] = -0.0
lam[3,5] = 1.0
lam[3,6] = -0.0
lam[3,7] = -0.0
lam[3,8] = -0.0
lam[4,0] = -0.0
lam[4,1] = -0.0
lam[4,2] = -0.0
lam[4,3] = -0.0
lam[4,4] = -0.0
lam[4,5] = 1.0
lam[4,6] = -0.0
lam[4,7] = -0.0
lam[4,8] = -0.0
tau[0,0,1] = 1.0
tau[0,0,2] = -0.0
tau[0,0,3] = -0.0
tau[0,0,4] = -0.0
tau[0,0,L0] = -0.0
tau[0,0,L1] = -0.0
tau[0,0,L2] = -0.0
tau[0,1,1] = 1.0
tau[0,1,2] = -0.0
tau[0,1,3] = -0.0
tau[0,1,4] = -0.0
tau[0,1,L0] = -0.0
tau[0,1,L1] = -0.0
tau[0,1,L2] = -0.0
tau[0,2,1] = 1.0
tau[0,2,2] = -0.0
tau[0,2,3] = -0.0
tau[0,2,4] = -0.0
tau[0,2,L0] = -0.0
tau[0,2,L1] = -0.0
tau[0,2,L2] = -0.0
tau[0,3,1] = 1.0
tau[0,3,2] = -0.0
tau[0,3,3] = -0.0
tau[0,3,4] = -0.0
tau[0,3,L0] = -0.0
tau[0,3,L1] = -0.0
tau[0,3,L2] = -0.0
tau[0,4,1] = -0.0
tau[0,4,2] = -0.0
tau[0,4,3] = -0.0
tau[0,4,4] = -0.0
tau[0,4,L0] = -0.0
tau[0,4,L1] = -0.0
tau[0,4,L2] = -0.0
tau[0,5,1] = -0.0
tau[0,5,2] = -0.0
tau[0,5,3] = -0.0
tau[0,5,4] = -0.0
tau[0,5,L0] = -0.0
tau[0,5,L1] = -0.0
tau[0,5,L2] = -0.0
tau[1,0,2] = 0.3333333333333333
tau[1,0,3] = 0.3333333333333333
tau[1,0,4] = 0.3333333333333333
tau[1,0,L0] = 0.0
tau[1,0,L1] = 0.0
tau[1,0,L2] = 0.0
tau[1,1,2] = 0.3333333333333333
tau[1,1,3] = 0.3333333333333333
tau[1,1,4] = 0.3333333333333333
tau[1,1,L0] = 0.0
tau[1,1,L1] = 0.0
tau[1,1,L2] = 0.0
tau[1,2,2] = 0.3333333333333333
tau[1,2,3] = 0.0
tau[1,2,4] = 0.0
tau[1,2,L0] = 0.0
tau[1,2,L1] = 0.6666666666666666
tau[1,2,L2] = 0.0
tau[1,3,2] = 0.3333333333333333
tau[1,3,3] = 0.3333333333333333
tau[1,3,4] = 0.3333333333333333
tau[1,3,L0] = 0.0
tau[1,3,L1] = 0.0
tau[1,3,L2] = 0.0
tau[1,4,2] = 0.3333333333333333
tau[1,4,3] = 0.3333333333333333
tau[1,4,4] = 0.3333333333333333
tau[1,4,L0] = 0.0
tau[1,4,L1] = 0.0
tau[1,4,L2] = 0.0
tau[1,5,2] = 0.3333333333333333
tau[1,5,3] = 0.3333333333333333
tau[1,5,4] = 0.3333333333333333
tau[1,5,L0] = 0.0
tau[1,5,L1] = 0.0
tau[1,5,L2] = 0.0
tau[2,0,3] = 0.0
tau[2,0,4] = 0.0
tau[2,0,L0] = 0.3333333333333333
tau[2,0,L1] = 0.3333333333333333
tau[2,0,L2] = 0.3333333333333333
tau[2,1,3] = 0.0
tau[2,1,4] = 0.0
tau[2,1,L0] = 0.3333333333333333
tau[2,1,L1] = 0.3333333333333333
tau[2,1,L2] = 0.3333333333333333
tau[2,2,3] = 0.0
tau[2,2,4] = 0.0
tau[2,2,L0] = 0.3333333333333333
tau[2,2,L1] = 0.3333333333333333
tau[2,2,L2] = 0.3333333333333333
tau[2,3,3] = 0.0
tau[2,3,4] = 0.0
tau[2,3,L0] = 0.3333333333333333
tau[2,3,L1] = 0.3333333333333333
tau[2,3,L2] = 0.3333333333333333
tau[2,4,3] = 0.0
tau[2,4,4] = 0.0
tau[2,4,L0] = 0.0
tau[2,4,L1] = 0.0
tau[2,4,L2] = 0.0
tau[2,5,3] = 0.0
tau[2,5,4] = 0.0
tau[2,5,L0] = 0.0
tau[2,5,L1] = 0.0
tau[2,5,L2] = 0.0
tau[3,0,4] = 0.0
tau[3,0,L0] = 0.3333333333333333
tau[3,0,L1] = 0.3333333333333333
tau[3,0,L2] = 0.3333333333333333
tau[3,1,4] = 0.0
tau[3,1,L0] = 0.3333333333333333
tau[3,1,L1] = 0.3333333333333333
tau[3,1,L2] = 0.3333333333333333
tau[3,2,4] = 0.0
tau[3,2,L0] = 0.3333333333333333
tau[3,2,L1] = 0.3333333333333333
tau[3,2,L2] = 0.3333333333333333
tau[3,3,4] = 0.0
tau[3,3,L0] = 0.3333333333333333
tau[3,3,L1] = 0.3333333333333333
tau[3,3,L2] = 0.3333333333333333
tau[3,4,4] = 0.0
tau[3,4,L0] = 0.0
tau[3,4,L1] = 0.0
tau[3,4,L2] = 0.0
tau[3,5,4] = 0.0
tau[3,5,L0] = 0.0
tau[3,5,L1] = 0.0
tau[3,5,L2] = 0.0
tau[4,0,L0] = 0.3333333333333333
tau[4,0,L1] = 0.3333333333333333
tau[4,0,L2] = 0.3333333333333333
tau[4,1,L0] = 0.3333333333333333
tau[4,1,L1] = 0.3333333333333333
tau[4,1,L2] = 0.3333333333333333
tau[4,2,L0] = 0.3333333333333333
tau[4,2,L1] = 0.3333333333333333
tau[4,2,L2] = 0.3333333333333333
tau[4,3,L0] = 0.3333333333333333
tau[4,3,L1] = 0.3333333333333333
tau[4,3,L2] = 0.3333333333333333
tau[4,4,L0] = 0.0
tau[4,4,L1] = 0.0
tau[4,4,L2] = 0.0
tau[4,5,L0] = 0.0
tau[4,5,L1] = 0.0
tau[4,5,L2] = 0.0
m[0,0] = 1.0
m[0,1] = 1.0
m[0,2] = 1.0
m[0,3] = 1.0
m[0,4] = 1.0
m[0,5] = 1.0
m[0,6] = 1.0
m[0,7] = 1.0
m[0,8] = 1.0
m[0,9] = 1.0
m[0,10] = 1.0
m[0,11] = 1.0
m[0,12] = 1.0
m[0,13] = 1.0
m[0,14] = 1.0
m[0,15] = 1.0
m[0,16] = 1.0
m[0,17] = 1.0
m[0,18] = 1.0
m[0,19] = 1.0
m[0,20] = 1.0
m[0,21] = 1.0
m[0,22] = 1.0
m[0,23] = 1.0
m[0,24] = 1.0
m[0,25] = 1.0
m[0,26] = 1.0
m[0,27] = 1.0
m[0,28] = 1.0
m[0,29] = 1.0
m[0,30] = 1.0
m[0,31] = 1.0
m[0,32] = 1.0
m[0,33] = 1.0
m[0,34] = 1.0
m[0,35] = 1.0
m[0,36] = 1.0
m[0,37] = 1.0
m[0,38] = 1.0
m[0,39] = 1.0
m[0,40] = 1.0
m[0,41] = 1.0
m[0,42] = 1.0
m[0,43] = 1.0
m[0,44] = 1.0
m[0,45] = 1.0
m[0,46] = 1.0
m[0,47] = 1.0
m[0,48] = 1.0
m[0,49] = 1.0
m[0,50] = 1.0
m[0,51] = 1.0
m[0,52] = 1.0
m[0,53] = 1.0
m[0,54] = 1.0
m[0,55] = 1.0
m[0,56] = 1.0
m[0,57] = 1.0
m[0,58] = 1.0
m[0,59] = 1.0
m[0,60] = 1.0
m[0,61] = 1.0
m[0,62] = 1.0
m[0,63] = 1.0
m[0,64] = 1.0
m[0,65] = 1.0
m[0,66] = 1.0
m[0,67] = 1.0
m[0,68] = 1.0
m[0,69] = 1.0
m[0,70] = 1.0
m[0,71] = 1.0
m[0,72] = 1.0
m[0,73] = 1.0
m[0,74] = 1.0
m[0,75] = 1.0
m[0,76] = 1.0
m[0,77] = 1.0
m[0,78] = 1.0
m[0,79] = 1.0
m[0,80] = 1.0
m[0,81] = 1.0
m[0,82] = 1.0
m[0,83] = 1.0
m[0,84] = 1.0
m[0,85] = 1.0
m[0,86] = 1.0
m[0,87] = 1.0
m[0,88] = 1.0
m[0,89] = 1.0
m[0,90] = 1.0
m[0,91] = 1.0
m[0,92] = 1.0
m[0,93] = 1.0
m[0,94] = 1.0
m[0,95] = 1.0
m[0,96] = 1.0
m[0,97] = 1.0
m[0,98] = 1.0
m[0,99] = 1.0
m[0,100] = 1.0
m[0,101] = 1.0
m[0,102] = 1.0
m[0,103] = 1.0
m[0,104] = 1.0
m[0,105] = 1.0
m[0,106] = 1.0
m[0,107] = 1.0
m[0,108] = 1.0
m[0,109] = 1.0
m[0,110] = 1.0
m[0,111] = 1.0
m[0,112] = 1.0
m[0,113] = 1.0
m[0,114] = 1.0
m[0,115] = 1.0
m[0,116] = 1.0
m[0,117] = 1.0
m[0,118] = 1.0
m[0,119] = 1.0
m[0,120] = 1.0
m[0,121] = 1.0
m[0,122] = 1.0
m[0,123] = 1.0
m[0,124] = 1.0
m[0,125] = 1.0
m[0,126] = 1.0
m[0,127] = 1.0
m[0,128] = 1.0
m[0,129] = 1.0
m[0,130] = 1.0
m[0,131] = 1.0
m[0,132] = 1.0
m[0,133] = 1.0
m[0,134] = 1.0
m[0,135] = 1.0
m[0,136] = 1.0
m[0,137] = 1.0
m[0,138] = 1.0
m[0,139] = 1.0
m[0,140] = 1.0
m[0,141] = 1.0
m[0,142] = 1.0
m[0,143] = 1.0
m[0,144] = 1.0
m[0,145] = 1.0
m[0,146] = 1.0
m[0,147] = 1.0
m[0,148] = 1.0
m[0,149] = 1.0
m[0,150] = 1.0
m[0,151] = 1.0
m[0,152] = 1.0
m[0,153] = 1.0
m[0,154] = 1.0
m[0,155] = 1.0
m[0,156] = 1.0
m[0,157] = 1.0
m[0,158] = 1.0
m[0,159] = 1.0
m[0,160] = 1.0
m[0,161] = 1.0
m[0,162] = 1.0
m[0,163] = 1.0
m[0,164] = 1.0
m[0,165] = 1.0
m[0,166] = 1.0
m[0,167] = 1.0
m[0,168] = 1.0
m[0,169] = 1.0
m[0,170] = 1.0
m[0,171] = 1.0
m[0,172] = 1.0
m[0,173] = 1.0
m[0,174] = 1.0
m[0,175] = 1.0
m[0,176] = 1.0
m[0,177] = 1.0
u[0] = 1.0
u[1] = 1.0
u[2] = 1.0
u[3] = 1.0
u[4] = 1.0
o_u[0,0] = 0.0
o_u[0,1] = 0.0
o_u[0,2] = 0.0
o_u[0,3] = 0.0
o_u[0,4] = 0.0
o_u[0,5] = 1.0
o_u[0,6] = -0.0
o_u[0,7] = -0.0
o_u[0,8] = 0.0
o_u[1,0] = 0.0
o_u[1,1] = 0.0
o_u[1,2] = 1.0
o_u[1,3] = 0.0
o_u[1,4] = 0.0
o_u[1,5] = 0.0
o_u[1,6] = 0.0
o_u[1,7] = 0.0
o_u[1,8] = 0.0
o_u[2,0] = 0.0
o_u[2,1] = 0.0
o_u[2,2] = 0.0
o_u[2,3] = 0.0
o_u[2,4] = 0.0
o_u[2,5] = 1.0
o_u[2,6] = 0.0
o_u[2,7] = 0.0
o_u[2,8] = 0.0
o_u[3,0] = 0.0
o_u[3,1] = 0.0
o_u[3,2] = 0.0
o_u[3,3] = 0.0
o_u[3,4] = 0.0
o_u[3,5] = 1.0
o_u[3,6] = 0.0
o_u[3,7] = 0.0
o_u[3,8] = 0.0
o_u[4,0] = 0.0
o_u[4,1] = 0.0
o_u[4,2] = 0.0
o_u[4,3] = 0.0
o_u[4,4] = 0.0
o_u[4,5] = 1.0
o_u[4,6] = 0.0
o_u[4,7] = 0.0
o_u[4,8] = 0.0
------------------------------------------------------------------------
------------------------------------------------------------------------
Saved hierarchical tree visualization to milp_tree_levels.png
THIS IS THE INITIAL CORRECTNESS 1.0
THIS IS THE INITIAL EXPLAINABILITY 15.0
Inside find_pareto_solution_more_e
----------------------------------
THE CURRENT CORRECTNESS IS: 1.0, AND THE CURRENT EXPLAINABILITY IS: 15.0
Gurobi Optimizer version 12.0.3 build v12.0.3rc0 (linux64 - "Ubuntu 22.04.5 LTS")

CPU model: AMD EPYC 7742 64-Core Processor, instruction set [SSE2|AVX|AVX2]
Thread count: 128 physical cores, 256 logical processors, using up to 32 threads

Optimize a model with 146747 rows, 33859 columns and 452202 nonzeros
Model fingerprint: 0xc6b2e778
Variable types: 33772 continuous, 87 integer (0 binary)
Coefficient statistics:
  Matrix range     [1e+00, 3e+00]
  Objective range  [1e+00, 3e+00]
  Bounds range     [1e+00, 1e+00]
  RHS range        [1e+00, 1e+03]

MIP start from previous solve did not produce a new incumbent solution
MIP start from previous solve violates constraint R146745 by 1.000000000

Presolve removed 110388 rows and 24220 columns
Presolve time: 2.03s
Presolved: 36359 rows, 9639 columns, 156996 nonzeros
Variable types: 8947 continuous, 692 integer (692 binary)

Root relaxation: objective 1.940000e+02, 8906 iterations, 1.42 seconds (1.63 work units)

    Nodes    |    Current Node    |     Objective Bounds      |     Work
 Expl Unexpl |  Obj  Depth IntInf | Incumbent    BestBd   Gap | It/Node Time

     0     0  194.00000    0  228          -  194.00000      -     -    4s
     0     0  193.00000    0  399          -  193.00000      -     -    9s
     0     0 infeasible    0               - infeasible      -     -   10s

Cutting planes:
  Gomory: 12
  MIR: 94
  Flow cover: 47
  RLT: 363
  BQP: 534

Explored 1 nodes (20547 simplex iterations) in 10.71 seconds (10.58 work units)
Thread count was 32 (of 256 available processors)

Solution count 0
No other solutions better than -1e+100

Model is infeasible
Best objective -, best bound -, gap -
[INFO] Model became infeasible under the new cuts.
End of find_pareto_solution_more_e 2 @@@@@@@@@@@
Inside find_pareto_solution_more_c
Gurobi Optimizer version 12.0.3 build v12.0.3rc0 (linux64 - "Ubuntu 22.04.5 LTS")

CPU model: AMD EPYC 7742 64-Core Processor, instruction set [SSE2|AVX|AVX2]
Thread count: 128 physical cores, 256 logical processors, using up to 32 threads

Optimize a model with 146747 rows, 33859 columns and 452202 nonzeros
Model fingerprint: 0xb4662485
Variable types: 33772 continuous, 87 integer (0 binary)
Coefficient statistics:
  Matrix range     [1e+00, 3e+00]
  Objective range  [1e+00, 3e+00]
  Bounds range     [1e+00, 1e+00]
  RHS range        [1e+00, 1e+03]

MIP start from previous solve did not produce a new incumbent solution
MIP start from previous solve violates constraint R146745 by 1.000000000

Presolve removed 1 rows and 90 columns
Presolve time: 0.07s

Explored 0 nodes (0 simplex iterations) in 0.12 seconds (0.09 work units)
Thread count was 1 (of 256 available processors)

Solution count 0
No other solutions better than -1e+100

Model is infeasible
Best objective -, best bound -, gap -
[INFO] Model became infeasible under the new cuts.
End of find_pareto_solution_more_c 1 |||||||||||||||||
App ending 3....................... c = 1.0 , e = 15.0

 Total time taken: 61.545488119125366 seconds